20J6M/DAT/20J6MNNL-8.dat
20 6
25.8107 25.8107
21.0676 21.0676
21.1356 21.1356
14.3176 14.3176
17.822 17.822
25.1276 25.1276
24.7737 24.7737
29.5319 29.5319
17.1208 17.1208
34.2614 34.2614
29.527 29.527
20.8 20.8
26.6647 26.6647
21.6127 21.6127
26.0396 26.0396
31.5239 31.5239
15.6936 15.6936
24.3526 24.3526
25.4551 25.4551
25.7548 25.7548
478.3929