20J6M/SOL/20J6MNNL-8.sol
solution status: optimal solution found
objective value:                             79.73215
x#1#2                                               1 	(obj:0)
x#2#4                                               1 	(obj:0)
x#3#6                                               1 	(obj:0)
x#4#6                                               1 	(obj:0)
x#5#6                                               1 	(obj:0)
x#6#2                                0.17446353810153 	(obj:0)
x#6#4                                0.82553646189847 	(obj:0)
x#7#5                                               1 	(obj:0)
x#8#3                                               1 	(obj:0)
x#9#4                                               1 	(obj:0)
x#10#3                                              1 	(obj:0)
x#11#1                                              1 	(obj:0)
x#12#4                                              1 	(obj:0)
x#13#1                                              1 	(obj:0)
x#14#6                                              1 	(obj:0)
x#15#1                              0.305511605401006 	(obj:0)
x#15#2                              0.175661300480807 	(obj:0)
x#15#5                               0.51882709411819 	(obj:0)
x#16#1                              0.494388384685904 	(obj:0)
x#16#3                              0.505611615314096 	(obj:0)
x#17#5                                              1 	(obj:0)
x#18#2                              0.801078734919474 	(obj:0)
x#18#6                              0.198921265080525 	(obj:0)
x#19#2                                              1 	(obj:0)
x#20#5                                              1 	(obj:0)
z                                            79.73215 	(obj:1)
